; benchmark generated from python API
(set-info :status unknown)
(declare-fun cell_1_1 () Int)
(declare-fun cell_2_1 () Int)
(declare-fun cell_3_1 () Int)
(declare-fun cell_4_1 () Int)
(declare-fun cell_5_1 () Int)
(declare-fun cell_6_1 () Int)
(declare-fun cell_7_1 () Int)
(declare-fun cell_8_1 () Int)
(declare-fun cell_9_1 () Int)
(declare-fun cell_1_2 () Int)
(declare-fun cell_2_2 () Int)
(declare-fun cell_3_2 () Int)
(declare-fun cell_4_2 () Int)
(declare-fun cell_5_2 () Int)
(declare-fun cell_6_2 () Int)
(declare-fun cell_7_2 () Int)
(declare-fun cell_8_2 () Int)
(declare-fun cell_9_2 () Int)
(declare-fun cell_1_3 () Int)
(declare-fun cell_2_3 () Int)
(declare-fun cell_3_3 () Int)
(declare-fun cell_4_3 () Int)
(declare-fun cell_5_3 () Int)
(declare-fun cell_6_3 () Int)
(declare-fun cell_7_3 () Int)
(declare-fun cell_8_3 () Int)
(declare-fun cell_9_3 () Int)
(declare-fun cell_1_4 () Int)
(declare-fun cell_2_4 () Int)
(declare-fun cell_3_4 () Int)
(declare-fun cell_4_4 () Int)
(declare-fun cell_5_4 () Int)
(declare-fun cell_6_4 () Int)
(declare-fun cell_7_4 () Int)
(declare-fun cell_8_4 () Int)
(declare-fun cell_9_4 () Int)
(declare-fun cell_1_5 () Int)
(declare-fun cell_2_5 () Int)
(declare-fun cell_3_5 () Int)
(declare-fun cell_4_5 () Int)
(declare-fun cell_5_5 () Int)
(declare-fun cell_6_5 () Int)
(declare-fun cell_7_5 () Int)
(declare-fun cell_8_5 () Int)
(declare-fun cell_9_5 () Int)
(declare-fun cell_1_6 () Int)
(declare-fun cell_2_6 () Int)
(declare-fun cell_3_6 () Int)
(declare-fun cell_4_6 () Int)
(declare-fun cell_5_6 () Int)
(declare-fun cell_6_6 () Int)
(declare-fun cell_7_6 () Int)
(declare-fun cell_8_6 () Int)
(declare-fun cell_9_6 () Int)
(declare-fun cell_1_7 () Int)
(declare-fun cell_2_7 () Int)
(declare-fun cell_3_7 () Int)
(declare-fun cell_4_7 () Int)
(declare-fun cell_5_7 () Int)
(declare-fun cell_6_7 () Int)
(declare-fun cell_7_7 () Int)
(declare-fun cell_8_7 () Int)
(declare-fun cell_9_7 () Int)
(declare-fun cell_1_8 () Int)
(declare-fun cell_2_8 () Int)
(declare-fun cell_3_8 () Int)
(declare-fun cell_4_8 () Int)
(declare-fun cell_5_8 () Int)
(declare-fun cell_6_8 () Int)
(declare-fun cell_7_8 () Int)
(declare-fun cell_8_8 () Int)
(declare-fun cell_9_8 () Int)
(declare-fun cell_1_9 () Int)
(declare-fun cell_2_9 () Int)
(declare-fun cell_3_9 () Int)
(declare-fun cell_4_9 () Int)
(declare-fun cell_5_9 () Int)
(declare-fun cell_6_9 () Int)
(declare-fun cell_7_9 () Int)
(declare-fun cell_8_9 () Int)
(declare-fun cell_9_9 () Int)
(assert
 (let (($x7712 (= cell_1_1 9)))
 (let (($x8577 (= cell_1_1 8)))
 (let (($x9477 (= cell_1_1 7)))
 (let (($x7438 (= cell_1_1 6)))
 (let (($x4816 (= cell_1_1 5)))
 (let (($x3840 (= cell_1_1 4)))
 (let (($x3730 (= cell_1_1 3)))
 (let (($x5207 (= cell_1_1 2)))
 (let (($x8635 (= cell_1_1 1)))
 (or $x8635 $x5207 $x3730 $x3840 $x4816 $x7438 $x9477 $x8577 $x7712)))))))))))
(assert
 (let (($x6325 (= cell_2_1 9)))
 (let (($x6063 (= cell_2_1 8)))
 (let (($x9486 (= cell_2_1 7)))
 (let (($x4782 (= cell_2_1 6)))
 (let (($x3191 (= cell_2_1 5)))
 (let (($x372 (= cell_2_1 4)))
 (let (($x1631 (= cell_2_1 3)))
 (let (($x2020 (= cell_2_1 2)))
 (let (($x7245 (= cell_2_1 1)))
 (or $x7245 $x2020 $x1631 $x372 $x3191 $x4782 $x9486 $x6063 $x6325)))))))))))
(assert
 (let (($x9904 (= cell_3_1 9)))
 (let (($x8238 (= cell_3_1 8)))
 (let (($x6579 (= cell_3_1 7)))
 (let (($x8763 (= cell_3_1 6)))
 (let (($x1215 (= cell_3_1 5)))
 (let (($x7831 (= cell_3_1 4)))
 (let (($x3186 (= cell_3_1 3)))
 (let (($x4604 (= cell_3_1 2)))
 (let (($x3095 (= cell_3_1 1)))
 (or $x3095 $x4604 $x3186 $x7831 $x1215 $x8763 $x6579 $x8238 $x9904)))))))))))
(assert
 (let (($x3418 (= cell_4_1 9)))
 (let (($x5382 (= cell_4_1 8)))
 (let (($x5689 (= cell_4_1 7)))
 (let (($x5399 (= cell_4_1 6)))
 (let (($x1157 (= cell_4_1 5)))
 (let (($x303 (= cell_4_1 4)))
 (let (($x8351 (= cell_4_1 3)))
 (let (($x1411 (= cell_4_1 2)))
 (let (($x6899 (= cell_4_1 1)))
 (or $x6899 $x1411 $x8351 $x303 $x1157 $x5399 $x5689 $x5382 $x3418)))))))))))
(assert
 (let (($x5065 (= cell_5_1 9)))
 (let (($x1267 (= cell_5_1 8)))
 (let (($x1749 (= cell_5_1 7)))
 (let (($x2365 (= cell_5_1 6)))
 (let (($x7435 (= cell_5_1 5)))
 (let (($x5559 (= cell_5_1 4)))
 (let (($x6739 (= cell_5_1 3)))
 (let (($x8058 (= cell_5_1 2)))
 (let (($x7456 (= cell_5_1 1)))
 (or $x7456 $x8058 $x6739 $x5559 $x7435 $x2365 $x1749 $x1267 $x5065)))))))))))
(assert
 (let (($x4079 (= cell_6_1 9)))
 (let (($x9546 (= cell_6_1 8)))
 (let (($x6061 (= cell_6_1 7)))
 (let (($x7571 (= cell_6_1 6)))
 (let (($x1230 (= cell_6_1 5)))
 (let (($x2561 (= cell_6_1 4)))
 (let (($x5502 (= cell_6_1 3)))
 (let (($x9975 (= cell_6_1 2)))
 (let (($x3762 (= cell_6_1 1)))
 (or $x3762 $x9975 $x5502 $x2561 $x1230 $x7571 $x6061 $x9546 $x4079)))))))))))
(assert
 (let (($x9829 (= cell_7_1 9)))
 (let (($x2888 (= cell_7_1 8)))
 (let (($x4055 (= cell_7_1 7)))
 (let (($x5755 (= cell_7_1 6)))
 (let (($x5420 (= cell_7_1 5)))
 (let (($x2659 (= cell_7_1 4)))
 (let (($x839 (= cell_7_1 3)))
 (let (($x5492 (= cell_7_1 2)))
 (let (($x4899 (= cell_7_1 1)))
 (or $x4899 $x5492 $x839 $x2659 $x5420 $x5755 $x4055 $x2888 $x9829)))))))))))
(assert
 (let (($x10093 (= cell_8_1 9)))
 (let (($x7452 (= cell_8_1 8)))
 (let (($x3343 (= cell_8_1 7)))
 (let (($x3212 (= cell_8_1 6)))
 (let (($x2082 (= cell_8_1 5)))
 (let (($x7104 (= cell_8_1 4)))
 (let (($x8735 (= cell_8_1 3)))
 (let (($x2204 (= cell_8_1 2)))
 (let (($x4921 (= cell_8_1 1)))
 (or $x4921 $x2204 $x8735 $x7104 $x2082 $x3212 $x3343 $x7452 $x10093)))))))))))
(assert
 (let (($x4999 (= cell_9_1 9)))
 (let (($x757 (= cell_9_1 8)))
 (let (($x6148 (= cell_9_1 7)))
 (let (($x1459 (= cell_9_1 6)))
 (let (($x10095 (= cell_9_1 5)))
 (let (($x10161 (= cell_9_1 4)))
 (let (($x6549 (= cell_9_1 3)))
 (let (($x9572 (= cell_9_1 2)))
 (let (($x9519 (= cell_9_1 1)))
 (or $x9519 $x9572 $x6549 $x10161 $x10095 $x1459 $x6148 $x757 $x4999)))))))))))
(assert
 (let (($x9939 (= cell_1_2 9)))
 (let (($x5943 (= cell_1_2 8)))
 (let (($x2827 (= cell_1_2 7)))
 (let (($x3889 (= cell_1_2 6)))
 (let (($x2680 (= cell_1_2 5)))
 (let (($x5284 (= cell_1_2 4)))
 (let (($x6068 (= cell_1_2 3)))
 (let (($x2666 (= cell_1_2 2)))
 (let (($x341 (= cell_1_2 1)))
 (or $x341 $x2666 $x6068 $x5284 $x2680 $x3889 $x2827 $x5943 $x9939)))))))))))
(assert
 (let (($x3881 (= cell_2_2 9)))
 (let (($x3067 (= cell_2_2 8)))
 (let (($x3563 (= cell_2_2 7)))
 (let (($x5467 (= cell_2_2 6)))
 (let (($x6533 (= cell_2_2 5)))
 (let (($x6179 (= cell_2_2 4)))
 (let (($x8564 (= cell_2_2 3)))
 (let (($x8008 (= cell_2_2 2)))
 (let (($x8794 (= cell_2_2 1)))
 (or $x8794 $x8008 $x8564 $x6179 $x6533 $x5467 $x3563 $x3067 $x3881)))))))))))
(assert
 (let (($x2995 (= cell_3_2 9)))
 (let (($x4696 (= cell_3_2 8)))
 (let (($x3583 (= cell_3_2 7)))
 (let (($x3638 (= cell_3_2 6)))
 (let (($x4249 (= cell_3_2 5)))
 (let (($x2729 (= cell_3_2 4)))
 (let (($x8688 (= cell_3_2 3)))
 (let (($x5141 (= cell_3_2 2)))
 (let (($x6953 (= cell_3_2 1)))
 (or $x6953 $x5141 $x8688 $x2729 $x4249 $x3638 $x3583 $x4696 $x2995)))))))))))
(assert
 (let (($x7516 (= cell_4_2 9)))
 (let (($x5507 (= cell_4_2 8)))
 (let (($x2353 (= cell_4_2 7)))
 (let (($x332 (= cell_4_2 6)))
 (let (($x4480 (= cell_4_2 5)))
 (let (($x2747 (= cell_4_2 4)))
 (let (($x10142 (= cell_4_2 3)))
 (let (($x411 (= cell_4_2 2)))
 (let (($x9335 (= cell_4_2 1)))
 (or $x9335 $x411 $x10142 $x2747 $x4480 $x332 $x2353 $x5507 $x7516)))))))))))
(assert
 (let (($x4795 (= cell_5_2 9)))
 (let (($x5599 (= cell_5_2 8)))
 (let (($x4738 (= cell_5_2 7)))
 (let (($x1564 (= cell_5_2 6)))
 (let (($x1180 (= cell_5_2 5)))
 (let (($x1714 (= cell_5_2 4)))
 (let (($x4729 (= cell_5_2 3)))
 (let (($x8747 (= cell_5_2 2)))
 (let (($x9697 (= cell_5_2 1)))
 (or $x9697 $x8747 $x4729 $x1714 $x1180 $x1564 $x4738 $x5599 $x4795)))))))))))
(assert
 (let (($x7697 (= cell_6_2 9)))
 (let (($x7686 (= cell_6_2 8)))
 (let (($x1545 (= cell_6_2 7)))
 (let (($x4415 (= cell_6_2 6)))
 (let (($x5715 (= cell_6_2 5)))
 (let (($x2713 (= cell_6_2 4)))
 (let (($x8262 (= cell_6_2 3)))
 (let (($x5987 (= cell_6_2 2)))
 (let (($x3783 (= cell_6_2 1)))
 (or $x3783 $x5987 $x8262 $x2713 $x5715 $x4415 $x1545 $x7686 $x7697)))))))))))
(assert
 (let (($x5923 (= cell_7_2 9)))
 (let (($x5056 (= cell_7_2 8)))
 (let (($x9984 (= cell_7_2 7)))
 (let (($x1424 (= cell_7_2 6)))
 (let (($x713 (= cell_7_2 5)))
 (let (($x9322 (= cell_7_2 4)))
 (let (($x9844 (= cell_7_2 3)))
 (let (($x7206 (= cell_7_2 2)))
 (let (($x7662 (= cell_7_2 1)))
 (or $x7662 $x7206 $x9844 $x9322 $x713 $x1424 $x9984 $x5056 $x5923)))))))))))
(assert
 (let (($x1135 (= cell_8_2 9)))
 (let (($x8002 (= cell_8_2 8)))
 (let (($x5677 (= cell_8_2 7)))
 (let (($x8239 (= cell_8_2 6)))
 (let (($x4381 (= cell_8_2 5)))
 (let (($x1214 (= cell_8_2 4)))
 (let (($x6747 (= cell_8_2 3)))
 (let (($x1414 (= cell_8_2 2)))
 (let (($x1986 (= cell_8_2 1)))
 (or $x1986 $x1414 $x6747 $x1214 $x4381 $x8239 $x5677 $x8002 $x1135)))))))))))
(assert
 (let (($x6189 (= cell_9_2 9)))
 (let (($x8583 (= cell_9_2 8)))
 (let (($x9768 (= cell_9_2 7)))
 (let (($x1050 (= cell_9_2 6)))
 (let (($x109 (= cell_9_2 5)))
 (let (($x6791 (= cell_9_2 4)))
 (let (($x9447 (= cell_9_2 3)))
 (let (($x4760 (= cell_9_2 2)))
 (let (($x2817 (= cell_9_2 1)))
 (or $x2817 $x4760 $x9447 $x6791 $x109 $x1050 $x9768 $x8583 $x6189)))))))))))
(assert
 (let (($x5060 (= cell_1_3 9)))
 (let (($x2629 (= cell_1_3 8)))
 (let (($x1943 (= cell_1_3 7)))
 (let (($x2763 (= cell_1_3 6)))
 (let (($x7473 (= cell_1_3 5)))
 (let (($x4232 (= cell_1_3 4)))
 (let (($x7177 (= cell_1_3 3)))
 (let (($x3485 (= cell_1_3 2)))
 (let (($x1732 (= cell_1_3 1)))
 (or $x1732 $x3485 $x7177 $x4232 $x7473 $x2763 $x1943 $x2629 $x5060)))))))))))
(assert
 (let (($x9444 (= cell_2_3 9)))
 (let (($x8853 (= cell_2_3 8)))
 (let (($x3899 (= cell_2_3 7)))
 (let (($x1963 (= cell_2_3 6)))
 (let (($x4007 (= cell_2_3 5)))
 (let (($x2774 (= cell_2_3 4)))
 (let (($x3713 (= cell_2_3 3)))
 (let (($x636 (= cell_2_3 2)))
 (let (($x1007 (= cell_2_3 1)))
 (or $x1007 $x636 $x3713 $x2774 $x4007 $x1963 $x3899 $x8853 $x9444)))))))))))
(assert
 (let (($x1419 (= cell_3_3 9)))
 (let (($x7072 (= cell_3_3 8)))
 (let (($x2803 (= cell_3_3 7)))
 (let (($x2764 (= cell_3_3 6)))
 (let (($x3373 (= cell_3_3 5)))
 (let (($x7061 (= cell_3_3 4)))
 (let (($x2249 (= cell_3_3 3)))
 (let (($x7161 (= cell_3_3 2)))
 (let (($x7233 (= cell_3_3 1)))
 (or $x7233 $x7161 $x2249 $x7061 $x3373 $x2764 $x2803 $x7072 $x1419)))))))))))
(assert
 (let (($x1056 (= cell_4_3 9)))
 (let (($x5123 (= cell_4_3 8)))
 (let (($x8591 (= cell_4_3 7)))
 (let (($x8906 (= cell_4_3 6)))
 (let (($x9465 (= cell_4_3 5)))
 (let (($x7164 (= cell_4_3 4)))
 (let (($x4533 (= cell_4_3 3)))
 (let (($x6499 (= cell_4_3 2)))
 (let (($x154 (= cell_4_3 1)))
 (or $x154 $x6499 $x4533 $x7164 $x9465 $x8906 $x8591 $x5123 $x1056)))))))))))
(assert
 (let (($x6683 (= cell_5_3 9)))
 (let (($x1931 (= cell_5_3 8)))
 (let (($x1768 (= cell_5_3 7)))
 (let (($x6472 (= cell_5_3 6)))
 (let (($x3664 (= cell_5_3 5)))
 (let (($x578 (= cell_5_3 4)))
 (let (($x8751 (= cell_5_3 3)))
 (let (($x2902 (= cell_5_3 2)))
 (let (($x7701 (= cell_5_3 1)))
 (or $x7701 $x2902 $x8751 $x578 $x3664 $x6472 $x1768 $x1931 $x6683)))))))))))
(assert
 (let (($x44 (= cell_6_3 9)))
 (let (($x8733 (= cell_6_3 8)))
 (let (($x5823 (= cell_6_3 7)))
 (let (($x1738 (= cell_6_3 6)))
 (let (($x3231 (= cell_6_3 5)))
 (let (($x4430 (= cell_6_3 4)))
 (let (($x4363 (= cell_6_3 3)))
 (let (($x3756 (= cell_6_3 2)))
 (let (($x7030 (= cell_6_3 1)))
 (or $x7030 $x3756 $x4363 $x4430 $x3231 $x1738 $x5823 $x8733 $x44)))))))))))
(assert
 (let (($x6214 (= cell_7_3 9)))
 (let (($x5182 (= cell_7_3 8)))
 (let (($x6911 (= cell_7_3 7)))
 (let (($x1300 (= cell_7_3 6)))
 (let (($x5264 (= cell_7_3 5)))
 (let (($x5916 (= cell_7_3 4)))
 (let (($x2735 (= cell_7_3 3)))
 (let (($x7462 (= cell_7_3 2)))
 (let (($x2209 (= cell_7_3 1)))
 (or $x2209 $x7462 $x2735 $x5916 $x5264 $x1300 $x6911 $x5182 $x6214)))))))))))
(assert
 (let (($x3589 (= cell_8_3 9)))
 (let (($x3776 (= cell_8_3 8)))
 (let (($x1819 (= cell_8_3 7)))
 (let (($x8018 (= cell_8_3 6)))
 (let (($x5839 (= cell_8_3 5)))
 (let (($x7214 (= cell_8_3 4)))
 (let (($x3070 (= cell_8_3 3)))
 (let (($x5224 (= cell_8_3 2)))
 (let (($x1159 (= cell_8_3 1)))
 (or $x1159 $x5224 $x3070 $x7214 $x5839 $x8018 $x1819 $x3776 $x3589)))))))))))
(assert
 (let (($x2242 (= cell_9_3 9)))
 (let (($x6100 (= cell_9_3 8)))
 (let (($x8322 (= cell_9_3 7)))
 (let (($x9425 (= cell_9_3 6)))
 (let (($x8881 (= cell_9_3 5)))
 (let (($x3726 (= cell_9_3 4)))
 (let (($x9604 (= cell_9_3 3)))
 (let (($x6664 (= cell_9_3 2)))
 (let (($x4725 (= cell_9_3 1)))
 (or $x4725 $x6664 $x9604 $x3726 $x8881 $x9425 $x8322 $x6100 $x2242)))))))))))
(assert
 (let (($x5121 (= cell_1_4 9)))
 (let (($x1194 (= cell_1_4 8)))
 (let (($x6824 (= cell_1_4 7)))
 (let (($x4650 (= cell_1_4 6)))
 (let (($x7381 (= cell_1_4 5)))
 (let (($x134 (= cell_1_4 4)))
 (let (($x7118 (= cell_1_4 3)))
 (let (($x7273 (= cell_1_4 2)))
 (let (($x9709 (= cell_1_4 1)))
 (or $x9709 $x7273 $x7118 $x134 $x7381 $x4650 $x6824 $x1194 $x5121)))))))))))
(assert
 (let (($x1706 (= cell_2_4 9)))
 (let (($x3326 (= cell_2_4 8)))
 (let (($x8846 (= cell_2_4 7)))
 (let (($x5541 (= cell_2_4 6)))
 (let (($x2614 (= cell_2_4 5)))
 (let (($x40 (= cell_2_4 4)))
 (let (($x5563 (= cell_2_4 3)))
 (let (($x942 (= cell_2_4 2)))
 (let (($x10087 (= cell_2_4 1)))
 (or $x10087 $x942 $x5563 $x40 $x2614 $x5541 $x8846 $x3326 $x1706)))))))))))
(assert
 (let (($x1122 (= cell_3_4 9)))
 (let (($x8647 (= cell_3_4 8)))
 (let (($x6200 (= cell_3_4 7)))
 (let (($x5108 (= cell_3_4 6)))
 (let (($x2844 (= cell_3_4 5)))
 (let (($x9803 (= cell_3_4 4)))
 (let (($x8049 (= cell_3_4 3)))
 (let (($x5487 (= cell_3_4 2)))
 (let (($x3109 (= cell_3_4 1)))
 (or $x3109 $x5487 $x8049 $x9803 $x2844 $x5108 $x6200 $x8647 $x1122)))))))))))
(assert
 (let (($x7196 (= cell_4_4 9)))
 (let (($x5245 (= cell_4_4 8)))
 (let (($x5219 (= cell_4_4 7)))
 (let (($x7109 (= cell_4_4 6)))
 (let (($x1789 (= cell_4_4 5)))
 (let (($x6369 (= cell_4_4 4)))
 (let (($x8252 (= cell_4_4 3)))
 (let (($x2562 (= cell_4_4 2)))
 (let (($x2639 (= cell_4_4 1)))
 (or $x2639 $x2562 $x8252 $x6369 $x1789 $x7109 $x5219 $x5245 $x7196)))))))))))
(assert
 (let (($x6719 (= cell_5_4 9)))
 (let (($x8663 (= cell_5_4 8)))
 (let (($x10177 (= cell_5_4 7)))
 (let (($x5100 (= cell_5_4 6)))
 (let (($x9515 (= cell_5_4 5)))
 (let (($x1259 (= cell_5_4 4)))
 (let (($x2955 (= cell_5_4 3)))
 (let (($x4924 (= cell_5_4 2)))
 (let (($x7341 (= cell_5_4 1)))
 (or $x7341 $x4924 $x2955 $x1259 $x9515 $x5100 $x10177 $x8663 $x6719)))))))))))
(assert
 (let (($x6752 (= cell_6_4 9)))
 (let (($x10003 (= cell_6_4 8)))
 (let (($x2915 (= cell_6_4 7)))
 (let (($x1143 (= cell_6_4 6)))
 (let (($x5724 (= cell_6_4 5)))
 (let (($x2284 (= cell_6_4 4)))
 (let (($x6948 (= cell_6_4 3)))
 (let (($x2498 (= cell_6_4 2)))
 (let (($x9378 (= cell_6_4 1)))
 (or $x9378 $x2498 $x6948 $x2284 $x5724 $x1143 $x2915 $x10003 $x6752)))))))))))
(assert
 (let (($x2085 (= cell_7_4 9)))
 (let (($x2420 (= cell_7_4 8)))
 (let (($x5924 (= cell_7_4 7)))
 (let (($x3574 (= cell_7_4 6)))
 (let (($x5561 (= cell_7_4 5)))
 (let (($x6445 (= cell_7_4 4)))
 (let (($x5226 (= cell_7_4 3)))
 (let (($x1987 (= cell_7_4 2)))
 (let (($x927 (= cell_7_4 1)))
 (or $x927 $x1987 $x5226 $x6445 $x5561 $x3574 $x5924 $x2420 $x2085)))))))))))
(assert
 (let (($x9531 (= cell_8_4 9)))
 (let (($x3048 (= cell_8_4 8)))
 (let (($x959 (= cell_8_4 7)))
 (let (($x5830 (= cell_8_4 6)))
 (let (($x8692 (= cell_8_4 5)))
 (let (($x1578 (= cell_8_4 4)))
 (let (($x3199 (= cell_8_4 3)))
 (let (($x6612 (= cell_8_4 2)))
 (let (($x5957 (= cell_8_4 1)))
 (or $x5957 $x6612 $x3199 $x1578 $x8692 $x5830 $x959 $x3048 $x9531)))))))))))
(assert
 (let (($x482 (= cell_9_4 9)))
 (let (($x6008 (= cell_9_4 8)))
 (let (($x2252 (= cell_9_4 7)))
 (let (($x4197 (= cell_9_4 6)))
 (let (($x10126 (= cell_9_4 5)))
 (let (($x368 (= cell_9_4 4)))
 (let (($x8905 (= cell_9_4 3)))
 (let (($x5463 (= cell_9_4 2)))
 (let (($x5414 (= cell_9_4 1)))
 (or $x5414 $x5463 $x8905 $x368 $x10126 $x4197 $x2252 $x6008 $x482)))))))))))
(assert
 (let (($x10076 (= cell_1_5 9)))
 (let (($x1277 (= cell_1_5 8)))
 (let (($x501 (= cell_1_5 7)))
 (let (($x7514 (= cell_1_5 6)))
 (let (($x974 (= cell_1_5 5)))
 (let (($x1921 (= cell_1_5 4)))
 (let (($x5005 (= cell_1_5 3)))
 (let (($x5568 (= cell_1_5 2)))
 (let (($x9950 (= cell_1_5 1)))
 (or $x9950 $x5568 $x5005 $x1921 $x974 $x7514 $x501 $x1277 $x10076)))))))))))
(assert
 (let (($x6779 (= cell_2_5 9)))
 (let (($x5638 (= cell_2_5 8)))
 (let (($x8010 (= cell_2_5 7)))
 (let (($x476 (= cell_2_5 6)))
 (let (($x3015 (= cell_2_5 5)))
 (let (($x9735 (= cell_2_5 4)))
 (let (($x616 (= cell_2_5 3)))
 (let (($x8559 (= cell_2_5 2)))
 (let (($x10109 (= cell_2_5 1)))
 (or $x10109 $x8559 $x616 $x9735 $x3015 $x476 $x8010 $x5638 $x6779)))))))))))
(assert
 (let (($x4915 (= cell_3_5 9)))
 (let (($x9315 (= cell_3_5 8)))
 (let (($x9543 (= cell_3_5 7)))
 (let (($x7494 (= cell_3_5 6)))
 (let (($x7165 (= cell_3_5 5)))
 (let (($x1064 (= cell_3_5 4)))
 (let (($x1312 (= cell_3_5 3)))
 (let (($x6075 (= cell_3_5 2)))
 (let (($x6067 (= cell_3_5 1)))
 (or $x6067 $x6075 $x1312 $x1064 $x7165 $x7494 $x9543 $x9315 $x4915)))))))))))
(assert
 (let (($x6286 (= cell_4_5 9)))
 (let (($x5659 (= cell_4_5 8)))
 (let (($x1704 (= cell_4_5 7)))
 (let (($x7776 (= cell_4_5 6)))
 (let (($x1373 (= cell_4_5 5)))
 (let (($x9779 (= cell_4_5 4)))
 (let (($x7558 (= cell_4_5 3)))
 (let (($x3265 (= cell_4_5 2)))
 (let (($x8393 (= cell_4_5 1)))
 (or $x8393 $x3265 $x7558 $x9779 $x1373 $x7776 $x1704 $x5659 $x6286)))))))))))
(assert
 (let (($x1652 (= cell_5_5 9)))
 (let (($x7561 (= cell_5_5 8)))
 (let (($x8196 (= cell_5_5 7)))
 (let (($x1790 (= cell_5_5 6)))
 (let (($x1080 (= cell_5_5 5)))
 (let (($x7179 (= cell_5_5 4)))
 (let (($x6835 (= cell_5_5 3)))
 (let (($x5473 (= cell_5_5 2)))
 (let (($x7171 (= cell_5_5 1)))
 (or $x7171 $x5473 $x6835 $x7179 $x1080 $x1790 $x8196 $x7561 $x1652)))))))))))
(assert
 (let (($x9660 (= cell_6_5 9)))
 (let (($x6548 (= cell_6_5 8)))
 (let (($x2503 (= cell_6_5 7)))
 (let (($x2588 (= cell_6_5 6)))
 (let (($x4006 (= cell_6_5 5)))
 (let (($x1400 (= cell_6_5 4)))
 (let (($x6258 (= cell_6_5 3)))
 (let (($x1825 (= cell_6_5 2)))
 (let (($x945 (= cell_6_5 1)))
 (or $x945 $x1825 $x6258 $x1400 $x4006 $x2588 $x2503 $x6548 $x9660)))))))))))
(assert
 (let (($x6397 (= cell_7_5 9)))
 (let (($x6530 (= cell_7_5 8)))
 (let (($x7630 (= cell_7_5 7)))
 (let (($x7457 (= cell_7_5 6)))
 (let (($x5234 (= cell_7_5 5)))
 (let (($x1139 (= cell_7_5 4)))
 (let (($x4152 (= cell_7_5 3)))
 (let (($x8105 (= cell_7_5 2)))
 (let (($x6079 (= cell_7_5 1)))
 (or $x6079 $x8105 $x4152 $x1139 $x5234 $x7457 $x7630 $x6530 $x6397)))))))))))
(assert
 (let (($x117 (= cell_8_5 9)))
 (let (($x9516 (= cell_8_5 8)))
 (let (($x846 (= cell_8_5 7)))
 (let (($x7977 (= cell_8_5 6)))
 (let (($x8270 (= cell_8_5 5)))
 (let (($x9467 (= cell_8_5 4)))
 (let (($x10018 (= cell_8_5 3)))
 (let (($x4561 (= cell_8_5 2)))
 (let (($x7503 (= cell_8_5 1)))
 (or $x7503 $x4561 $x10018 $x9467 $x8270 $x7977 $x846 $x9516 $x117)))))))))))
(assert
 (let (($x1799 (= cell_9_5 9)))
 (let (($x5977 (= cell_9_5 8)))
 (let (($x5048 (= cell_9_5 7)))
 (let (($x5129 (= cell_9_5 6)))
 (let (($x376 (= cell_9_5 5)))
 (let (($x1880 (= cell_9_5 4)))
 (let (($x4323 (= cell_9_5 3)))
 (let (($x4665 (= cell_9_5 2)))
 (let (($x2257 (= cell_9_5 1)))
 (or $x2257 $x4665 $x4323 $x1880 $x376 $x5129 $x5048 $x5977 $x1799)))))))))))
(assert
 (let (($x6477 (= cell_1_6 9)))
 (let (($x6358 (= cell_1_6 8)))
 (let (($x2034 (= cell_1_6 7)))
 (let (($x6601 (= cell_1_6 6)))
 (let (($x3397 (= cell_1_6 5)))
 (let (($x2841 (= cell_1_6 4)))
 (let (($x3901 (= cell_1_6 3)))
 (let (($x8759 (= cell_1_6 2)))
 (let (($x4234 (= cell_1_6 1)))
 (or $x4234 $x8759 $x3901 $x2841 $x3397 $x6601 $x2034 $x6358 $x6477)))))))))))
(assert
 (let (($x5361 (= cell_2_6 9)))
 (let (($x2906 (= cell_2_6 8)))
 (let (($x7307 (= cell_2_6 7)))
 (let (($x8806 (= cell_2_6 6)))
 (let (($x5481 (= cell_2_6 5)))
 (let (($x2258 (= cell_2_6 4)))
 (let (($x1055 (= cell_2_6 3)))
 (let (($x868 (= cell_2_6 2)))
 (let (($x1199 (= cell_2_6 1)))
 (or $x1199 $x868 $x1055 $x2258 $x5481 $x8806 $x7307 $x2906 $x5361)))))))))))
(assert
 (let (($x284 (= cell_3_6 9)))
 (let (($x2945 (= cell_3_6 8)))
 (let (($x732 (= cell_3_6 7)))
 (let (($x9635 (= cell_3_6 6)))
 (let (($x6097 (= cell_3_6 5)))
 (let (($x5819 (= cell_3_6 4)))
 (let (($x3450 (= cell_3_6 3)))
 (let (($x6431 (= cell_3_6 2)))
 (let (($x6833 (= cell_3_6 1)))
 (or $x6833 $x6431 $x3450 $x5819 $x6097 $x9635 $x732 $x2945 $x284)))))))))))
(assert
 (let (($x6374 (= cell_4_6 9)))
 (let (($x5266 (= cell_4_6 8)))
 (let (($x546 (= cell_4_6 7)))
 (let (($x8033 (= cell_4_6 6)))
 (let (($x2618 (= cell_4_6 5)))
 (let (($x4432 (= cell_4_6 4)))
 (let (($x6222 (= cell_4_6 3)))
 (let (($x8460 (= cell_4_6 2)))
 (let (($x8671 (= cell_4_6 1)))
 (or $x8671 $x8460 $x6222 $x4432 $x2618 $x8033 $x546 $x5266 $x6374)))))))))))
(assert
 (let (($x3672 (= cell_5_6 9)))
 (let (($x8861 (= cell_5_6 8)))
 (let (($x6990 (= cell_5_6 7)))
 (let (($x502 (= cell_5_6 6)))
 (let (($x7808 (= cell_5_6 5)))
 (let (($x3940 (= cell_5_6 4)))
 (let (($x5102 (= cell_5_6 3)))
 (let (($x5886 (= cell_5_6 2)))
 (let (($x386 (= cell_5_6 1)))
 (or $x386 $x5886 $x5102 $x3940 $x7808 $x502 $x6990 $x8861 $x3672)))))))))))
(assert
 (let (($x3020 (= cell_6_6 9)))
 (let (($x6611 (= cell_6_6 8)))
 (let (($x9864 (= cell_6_6 7)))
 (let (($x4463 (= cell_6_6 6)))
 (let (($x8623 (= cell_6_6 5)))
 (let (($x8498 (= cell_6_6 4)))
 (let (($x4490 (= cell_6_6 3)))
 (let (($x5311 (= cell_6_6 2)))
 (let (($x2516 (= cell_6_6 1)))
 (or $x2516 $x5311 $x4490 $x8498 $x8623 $x4463 $x9864 $x6611 $x3020)))))))))))
(assert
 (let (($x4610 (= cell_7_6 9)))
 (let (($x2046 (= cell_7_6 8)))
 (let (($x2522 (= cell_7_6 7)))
 (let (($x3510 (= cell_7_6 6)))
 (let (($x328 (= cell_7_6 5)))
 (let (($x2317 (= cell_7_6 4)))
 (let (($x3647 (= cell_7_6 3)))
 (let (($x5421 (= cell_7_6 2)))
 (let (($x4544 (= cell_7_6 1)))
 (or $x4544 $x5421 $x3647 $x2317 $x328 $x3510 $x2522 $x2046 $x4610)))))))))))
(assert
 (let (($x4937 (= cell_8_6 9)))
 (let (($x6721 (= cell_8_6 8)))
 (let (($x4697 (= cell_8_6 7)))
 (let (($x8762 (= cell_8_6 6)))
 (let (($x5865 (= cell_8_6 5)))
 (let (($x3746 (= cell_8_6 4)))
 (let (($x4670 (= cell_8_6 3)))
 (let (($x3227 (= cell_8_6 2)))
 (let (($x5767 (= cell_8_6 1)))
 (or $x5767 $x3227 $x4670 $x3746 $x5865 $x8762 $x4697 $x6721 $x4937)))))))))))
(assert
 (let (($x1747 (= cell_9_6 9)))
 (let (($x1562 (= cell_9_6 8)))
 (let (($x456 (= cell_9_6 7)))
 (let (($x6844 (= cell_9_6 6)))
 (let (($x1546 (= cell_9_6 5)))
 (let (($x4672 (= cell_9_6 4)))
 (let (($x7746 (= cell_9_6 3)))
 (let (($x3077 (= cell_9_6 2)))
 (let (($x9454 (= cell_9_6 1)))
 (or $x9454 $x3077 $x7746 $x4672 $x1546 $x6844 $x456 $x1562 $x1747)))))))))))
(assert
 (let (($x4658 (= cell_1_7 9)))
 (let (($x3203 (= cell_1_7 8)))
 (let (($x2129 (= cell_1_7 7)))
 (let (($x852 (= cell_1_7 6)))
 (let (($x4691 (= cell_1_7 5)))
 (let (($x2477 (= cell_1_7 4)))
 (let (($x1313 (= cell_1_7 3)))
 (let (($x6138 (= cell_1_7 2)))
 (let (($x5462 (= cell_1_7 1)))
 (or $x5462 $x6138 $x1313 $x2477 $x4691 $x852 $x2129 $x3203 $x4658)))))))))))
(assert
 (let (($x1882 (= cell_2_7 9)))
 (let (($x7284 (= cell_2_7 8)))
 (let (($x4067 (= cell_2_7 7)))
 (let (($x8144 (= cell_2_7 6)))
 (let (($x10082 (= cell_2_7 5)))
 (let (($x9626 (= cell_2_7 4)))
 (let (($x2583 (= cell_2_7 3)))
 (let (($x5548 (= cell_2_7 2)))
 (let (($x8743 (= cell_2_7 1)))
 (or $x8743 $x5548 $x2583 $x9626 $x10082 $x8144 $x4067 $x7284 $x1882)))))))))))
(assert
 (let (($x8342 (= cell_3_7 9)))
 (let (($x5609 (= cell_3_7 8)))
 (let (($x9947 (= cell_3_7 7)))
 (let (($x10186 (= cell_3_7 6)))
 (let (($x9813 (= cell_3_7 5)))
 (let (($x9411 (= cell_3_7 4)))
 (let (($x66 (= cell_3_7 3)))
 (let (($x9964 (= cell_3_7 2)))
 (let (($x170 (= cell_3_7 1)))
 (or $x170 $x9964 $x66 $x9411 $x9813 $x10186 $x9947 $x5609 $x8342)))))))))))
(assert
 (let (($x5818 (= cell_4_7 9)))
 (let (($x5058 (= cell_4_7 8)))
 (let (($x6651 (= cell_4_7 7)))
 (let (($x8740 (= cell_4_7 6)))
 (let (($x5106 (= cell_4_7 5)))
 (let (($x7916 (= cell_4_7 4)))
 (let (($x4531 (= cell_4_7 3)))
 (let (($x2346 (= cell_4_7 2)))
 (let (($x9513 (= cell_4_7 1)))
 (or $x9513 $x2346 $x4531 $x7916 $x5106 $x8740 $x6651 $x5058 $x5818)))))))))))
(assert
 (let (($x9596 (= cell_5_7 9)))
 (let (($x4465 (= cell_5_7 8)))
 (let (($x5720 (= cell_5_7 7)))
 (let (($x4083 (= cell_5_7 6)))
 (let (($x9613 (= cell_5_7 5)))
 (let (($x1944 (= cell_5_7 4)))
 (let (($x7115 (= cell_5_7 3)))
 (let (($x10077 (= cell_5_7 2)))
 (let (($x481 (= cell_5_7 1)))
 (or $x481 $x10077 $x7115 $x1944 $x9613 $x4083 $x5720 $x4465 $x9596)))))))))))
(assert
 (let (($x5701 (= cell_6_7 9)))
 (let (($x6729 (= cell_6_7 8)))
 (let (($x4116 (= cell_6_7 7)))
 (let (($x4119 (= cell_6_7 6)))
 (let (($x1956 (= cell_6_7 5)))
 (let (($x5663 (= cell_6_7 4)))
 (let (($x6493 (= cell_6_7 3)))
 (let (($x2161 (= cell_6_7 2)))
 (let (($x6105 (= cell_6_7 1)))
 (or $x6105 $x2161 $x6493 $x5663 $x1956 $x4119 $x4116 $x6729 $x5701)))))))))))
(assert
 (let (($x3661 (= cell_7_7 9)))
 (let (($x6120 (= cell_7_7 8)))
 (let (($x2876 (= cell_7_7 7)))
 (let (($x6697 (= cell_7_7 6)))
 (let (($x1314 (= cell_7_7 5)))
 (let (($x5263 (= cell_7_7 4)))
 (let (($x4037 (= cell_7_7 3)))
 (let (($x9909 (= cell_7_7 2)))
 (let (($x9711 (= cell_7_7 1)))
 (or $x9711 $x9909 $x4037 $x5263 $x1314 $x6697 $x2876 $x6120 $x3661)))))))))))
(assert
 (let (($x2693 (= cell_8_7 9)))
 (let (($x3030 (= cell_8_7 8)))
 (let (($x5213 (= cell_8_7 7)))
 (let (($x2921 (= cell_8_7 6)))
 (let (($x4218 (= cell_8_7 5)))
 (let (($x4934 (= cell_8_7 4)))
 (let (($x4585 (= cell_8_7 3)))
 (let (($x3893 (= cell_8_7 2)))
 (let (($x5357 (= cell_8_7 1)))
 (or $x5357 $x3893 $x4585 $x4934 $x4218 $x2921 $x5213 $x3030 $x2693)))))))))))
(assert
 (let (($x4523 (= cell_9_7 9)))
 (let (($x2135 (= cell_9_7 8)))
 (let (($x3968 (= cell_9_7 7)))
 (let (($x6662 (= cell_9_7 6)))
 (let (($x3403 (= cell_9_7 5)))
 (let (($x1756 (= cell_9_7 4)))
 (let (($x8370 (= cell_9_7 3)))
 (let (($x1715 (= cell_9_7 2)))
 (let (($x2442 (= cell_9_7 1)))
 (or $x2442 $x1715 $x8370 $x1756 $x3403 $x6662 $x3968 $x2135 $x4523)))))))))))
(assert
 (let (($x2062 (= cell_1_8 9)))
 (let (($x5600 (= cell_1_8 8)))
 (let (($x3291 (= cell_1_8 7)))
 (let (($x3416 (= cell_1_8 6)))
 (let (($x321 (= cell_1_8 5)))
 (let (($x2104 (= cell_1_8 4)))
 (let (($x6230 (= cell_1_8 3)))
 (let (($x354 (= cell_1_8 2)))
 (let (($x9983 (= cell_1_8 1)))
 (or $x9983 $x354 $x6230 $x2104 $x321 $x3416 $x3291 $x5600 $x2062)))))))))))
(assert
 (let (($x1178 (= cell_2_8 9)))
 (let (($x10008 (= cell_2_8 8)))
 (let (($x3038 (= cell_2_8 7)))
 (let (($x5512 (= cell_2_8 6)))
 (let (($x4252 (= cell_2_8 5)))
 (let (($x4233 (= cell_2_8 4)))
 (let (($x847 (= cell_2_8 3)))
 (let (($x6639 (= cell_2_8 2)))
 (let (($x6849 (= cell_2_8 1)))
 (or $x6849 $x6639 $x847 $x4233 $x4252 $x5512 $x3038 $x10008 $x1178)))))))))))
(assert
 (let (($x1000 (= cell_3_8 9)))
 (let (($x464 (= cell_3_8 8)))
 (let (($x857 (= cell_3_8 7)))
 (let (($x608 (= cell_3_8 6)))
 (let (($x7362 (= cell_3_8 5)))
 (let (($x5206 (= cell_3_8 4)))
 (let (($x2458 (= cell_3_8 3)))
 (let (($x2742 (= cell_3_8 2)))
 (let (($x1978 (= cell_3_8 1)))
 (or $x1978 $x2742 $x2458 $x5206 $x7362 $x608 $x857 $x464 $x1000)))))))))))
(assert
 (let (($x591 (= cell_4_8 9)))
 (let (($x4145 (= cell_4_8 8)))
 (let (($x8783 (= cell_4_8 7)))
 (let (($x4303 (= cell_4_8 6)))
 (let (($x6628 (= cell_4_8 5)))
 (let (($x7757 (= cell_4_8 4)))
 (let (($x1423 (= cell_4_8 3)))
 (let (($x2977 (= cell_4_8 2)))
 (let (($x2886 (= cell_4_8 1)))
 (or $x2886 $x2977 $x1423 $x7757 $x6628 $x4303 $x8783 $x4145 $x591)))))))))))
(assert
 (let (($x2207 (= cell_5_8 9)))
 (let (($x3553 (= cell_5_8 8)))
 (let (($x2215 (= cell_5_8 7)))
 (let (($x4199 (= cell_5_8 6)))
 (let (($x8534 (= cell_5_8 5)))
 (let (($x4962 (= cell_5_8 4)))
 (let (($x57 (= cell_5_8 3)))
 (let (($x3172 (= cell_5_8 2)))
 (let (($x5094 (= cell_5_8 1)))
 (or $x5094 $x3172 $x57 $x4962 $x8534 $x4199 $x2215 $x3553 $x2207)))))))))))
(assert
 (let (($x4155 (= cell_6_8 9)))
 (let (($x9387 (= cell_6_8 8)))
 (let (($x5452 (= cell_6_8 7)))
 (let (($x248 (= cell_6_8 6)))
 (let (($x8355 (= cell_6_8 5)))
 (let (($x3128 (= cell_6_8 4)))
 (let (($x2922 (= cell_6_8 3)))
 (let (($x5716 (= cell_6_8 2)))
 (let (($x337 (= cell_6_8 1)))
 (or $x337 $x5716 $x2922 $x3128 $x8355 $x248 $x5452 $x9387 $x4155)))))))))))
(assert
 (let (($x3086 (= cell_7_8 9)))
 (let (($x4262 (= cell_7_8 8)))
 (let (($x6055 (= cell_7_8 7)))
 (let (($x3602 (= cell_7_8 6)))
 (let (($x4823 (= cell_7_8 5)))
 (let (($x3600 (= cell_7_8 4)))
 (let (($x4519 (= cell_7_8 3)))
 (let (($x6252 (= cell_7_8 2)))
 (let (($x8687 (= cell_7_8 1)))
 (or $x8687 $x6252 $x4519 $x3600 $x4823 $x3602 $x6055 $x4262 $x3086)))))))))))
(assert
 (let (($x89 (= cell_8_8 9)))
 (let (($x530 (= cell_8_8 8)))
 (let (($x8673 (= cell_8_8 7)))
 (let (($x2858 (= cell_8_8 6)))
 (let (($x9521 (= cell_8_8 5)))
 (let (($x2632 (= cell_8_8 4)))
 (let (($x3071 (= cell_8_8 3)))
 (let (($x6880 (= cell_8_8 2)))
 (let (($x2471 (= cell_8_8 1)))
 (or $x2471 $x6880 $x3071 $x2632 $x9521 $x2858 $x8673 $x530 $x89)))))))))))
(assert
 (let (($x4590 (= cell_9_8 9)))
 (let (($x3703 (= cell_9_8 8)))
 (let (($x2568 (= cell_9_8 7)))
 (let (($x12 (= cell_9_8 6)))
 (let (($x4607 (= cell_9_8 5)))
 (let (($x5422 (= cell_9_8 4)))
 (let (($x1995 (= cell_9_8 3)))
 (let (($x6387 (= cell_9_8 2)))
 (let (($x6051 (= cell_9_8 1)))
 (or $x6051 $x6387 $x1995 $x5422 $x4607 $x12 $x2568 $x3703 $x4590)))))))))))
(assert
 (let (($x4188 (= cell_1_9 9)))
 (let (($x1623 (= cell_1_9 8)))
 (let (($x1401 (= cell_1_9 7)))
 (let (($x10107 (= cell_1_9 6)))
 (let (($x5168 (= cell_1_9 5)))
 (let (($x8720 (= cell_1_9 4)))
 (let (($x5253 (= cell_1_9 3)))
 (let (($x6831 (= cell_1_9 2)))
 (let (($x3521 (= cell_1_9 1)))
 (or $x3521 $x6831 $x5253 $x8720 $x5168 $x10107 $x1401 $x1623 $x4188)))))))))))
(assert
 (let (($x4154 (= cell_2_9 9)))
 (let (($x4744 (= cell_2_9 8)))
 (let (($x2936 (= cell_2_9 7)))
 (let (($x7079 (= cell_2_9 6)))
 (let (($x9657 (= cell_2_9 5)))
 (let (($x8541 (= cell_2_9 4)))
 (let (($x1016 (= cell_2_9 3)))
 (let (($x1962 (= cell_2_9 2)))
 (let (($x3009 (= cell_2_9 1)))
 (or $x3009 $x1962 $x1016 $x8541 $x9657 $x7079 $x2936 $x4744 $x4154)))))))))))
(assert
 (let (($x7998 (= cell_3_9 9)))
 (let (($x6653 (= cell_3_9 8)))
 (let (($x1813 (= cell_3_9 7)))
 (let (($x7981 (= cell_3_9 6)))
 (let (($x8378 (= cell_3_9 5)))
 (let (($x5257 (= cell_3_9 4)))
 (let (($x5334 (= cell_3_9 3)))
 (let (($x7469 (= cell_3_9 2)))
 (let (($x5024 (= cell_3_9 1)))
 (or $x5024 $x7469 $x5334 $x5257 $x8378 $x7981 $x1813 $x6653 $x7998)))))))))))
(assert
 (let (($x1788 (= cell_4_9 9)))
 (let (($x9696 (= cell_4_9 8)))
 (let (($x9933 (= cell_4_9 7)))
 (let (($x8289 (= cell_4_9 6)))
 (let (($x10028 (= cell_4_9 5)))
 (let (($x1292 (= cell_4_9 4)))
 (let (($x1450 (= cell_4_9 3)))
 (let (($x2225 (= cell_4_9 2)))
 (let (($x8554 (= cell_4_9 1)))
 (or $x8554 $x2225 $x1450 $x1292 $x10028 $x8289 $x9933 $x9696 $x1788)))))))))))
(assert
 (let (($x3987 (= cell_5_9 9)))
 (let (($x986 (= cell_5_9 8)))
 (let (($x5834 (= cell_5_9 7)))
 (let (($x1893 (= cell_5_9 6)))
 (let (($x2485 (= cell_5_9 5)))
 (let (($x1592 (= cell_5_9 4)))
 (let (($x1839 (= cell_5_9 3)))
 (let (($x4806 (= cell_5_9 2)))
 (let (($x3956 (= cell_5_9 1)))
 (or $x3956 $x4806 $x1839 $x1592 $x2485 $x1893 $x5834 $x986 $x3987)))))))))))
(assert
 (let (($x5713 (= cell_6_9 9)))
 (let (($x7376 (= cell_6_9 8)))
 (let (($x2894 (= cell_6_9 7)))
 (let (($x1028 (= cell_6_9 6)))
 (let (($x848 (= cell_6_9 5)))
 (let (($x5935 (= cell_6_9 4)))
 (let (($x3139 (= cell_6_9 3)))
 (let (($x5543 (= cell_6_9 2)))
 (let (($x2836 (= cell_6_9 1)))
 (or $x2836 $x5543 $x3139 $x5935 $x848 $x1028 $x2894 $x7376 $x5713)))))))))))
(assert
 (let (($x5604 (= cell_7_9 9)))
 (let (($x191 (= cell_7_9 8)))
 (let (($x6062 (= cell_7_9 7)))
 (let (($x9907 (= cell_7_9 6)))
 (let (($x6487 (= cell_7_9 5)))
 (let (($x4484 (= cell_7_9 4)))
 (let (($x3786 (= cell_7_9 3)))
 (let (($x7741 (= cell_7_9 2)))
 (let (($x705 (= cell_7_9 1)))
 (or $x705 $x7741 $x3786 $x4484 $x6487 $x9907 $x6062 $x191 $x5604)))))))))))
(assert
 (let (($x437 (= cell_8_9 9)))
 (let (($x3264 (= cell_8_9 8)))
 (let (($x6562 (= cell_8_9 7)))
 (let (($x9632 (= cell_8_9 6)))
 (let (($x2325 (= cell_8_9 5)))
 (let (($x7761 (= cell_8_9 4)))
 (let (($x6033 (= cell_8_9 3)))
 (let (($x3107 (= cell_8_9 2)))
 (let (($x4345 (= cell_8_9 1)))
 (or $x4345 $x3107 $x6033 $x7761 $x2325 $x9632 $x6562 $x3264 $x437)))))))))))
(assert
 (let (($x5154 (= cell_9_9 9)))
 (let (($x4089 (= cell_9_9 8)))
 (let (($x5335 (= cell_9_9 7)))
 (let (($x1377 (= cell_9_9 6)))
 (let (($x1254 (= cell_9_9 5)))
 (let (($x5725 (= cell_9_9 4)))
 (let (($x8927 (= cell_9_9 3)))
 (let (($x3871 (= cell_9_9 2)))
 (let (($x6101 (= cell_9_9 1)))
 (or $x6101 $x3871 $x8927 $x5725 $x1254 $x1377 $x5335 $x4089 $x5154)))))))))))
(assert
 (and (distinct cell_1_1 cell_1_2 cell_1_3 cell_1_4 cell_1_5 cell_1_6 cell_1_7 cell_1_8 cell_1_9) true))
(assert
 (and (distinct cell_2_1 cell_2_2 cell_2_3 cell_2_4 cell_2_5 cell_2_6 cell_2_7 cell_2_8 cell_2_9) true))
(assert
 (and (distinct cell_3_1 cell_3_2 cell_3_3 cell_3_4 cell_3_5 cell_3_6 cell_3_7 cell_3_8 cell_3_9) true))
(assert
 (and (distinct cell_4_1 cell_4_2 cell_4_3 cell_4_4 cell_4_5 cell_4_6 cell_4_7 cell_4_8 cell_4_9) true))
(assert
 (and (distinct cell_5_1 cell_5_2 cell_5_3 cell_5_4 cell_5_5 cell_5_6 cell_5_7 cell_5_8 cell_5_9) true))
(assert
 (and (distinct cell_6_1 cell_6_2 cell_6_3 cell_6_4 cell_6_5 cell_6_6 cell_6_7 cell_6_8 cell_6_9) true))
(assert
 (and (distinct cell_7_1 cell_7_2 cell_7_3 cell_7_4 cell_7_5 cell_7_6 cell_7_7 cell_7_8 cell_7_9) true))
(assert
 (and (distinct cell_8_1 cell_8_2 cell_8_3 cell_8_4 cell_8_5 cell_8_6 cell_8_7 cell_8_8 cell_8_9) true))
(assert
 (and (distinct cell_9_1 cell_9_2 cell_9_3 cell_9_4 cell_9_5 cell_9_6 cell_9_7 cell_9_8 cell_9_9) true))
(assert
 (and (distinct cell_1_1 cell_2_1 cell_3_1 cell_4_1 cell_5_1 cell_6_1 cell_7_1 cell_8_1 cell_9_1) true))
(assert
 (and (distinct cell_1_2 cell_2_2 cell_3_2 cell_4_2 cell_5_2 cell_6_2 cell_7_2 cell_8_2 cell_9_2) true))
(assert
 (and (distinct cell_1_3 cell_2_3 cell_3_3 cell_4_3 cell_5_3 cell_6_3 cell_7_3 cell_8_3 cell_9_3) true))
(assert
 (and (distinct cell_1_4 cell_2_4 cell_3_4 cell_4_4 cell_5_4 cell_6_4 cell_7_4 cell_8_4 cell_9_4) true))
(assert
 (and (distinct cell_1_5 cell_2_5 cell_3_5 cell_4_5 cell_5_5 cell_6_5 cell_7_5 cell_8_5 cell_9_5) true))
(assert
 (and (distinct cell_1_6 cell_2_6 cell_3_6 cell_4_6 cell_5_6 cell_6_6 cell_7_6 cell_8_6 cell_9_6) true))
(assert
 (and (distinct cell_1_7 cell_2_7 cell_3_7 cell_4_7 cell_5_7 cell_6_7 cell_7_7 cell_8_7 cell_9_7) true))
(assert
 (and (distinct cell_1_8 cell_2_8 cell_3_8 cell_4_8 cell_5_8 cell_6_8 cell_7_8 cell_8_8 cell_9_8) true))
(assert
 (and (distinct cell_1_9 cell_2_9 cell_3_9 cell_4_9 cell_5_9 cell_6_9 cell_7_9 cell_8_9 cell_9_9) true))
(assert
 (and (distinct cell_1_1 cell_1_2 cell_1_3 cell_2_1 cell_2_2 cell_2_3 cell_3_1 cell_3_2 cell_3_3) true))
(assert
 (and (distinct cell_1_4 cell_1_5 cell_1_6 cell_2_4 cell_2_5 cell_2_6 cell_3_4 cell_3_5 cell_3_6) true))
(assert
 (and (distinct cell_1_7 cell_1_8 cell_1_9 cell_2_7 cell_2_8 cell_2_9 cell_3_7 cell_3_8 cell_3_9) true))
(assert
 (and (distinct cell_4_1 cell_4_2 cell_4_3 cell_5_1 cell_5_2 cell_5_3 cell_6_1 cell_6_2 cell_6_3) true))
(assert
 (and (distinct cell_4_4 cell_4_5 cell_4_6 cell_5_4 cell_5_5 cell_5_6 cell_6_4 cell_6_5 cell_6_6) true))
(assert
 (and (distinct cell_4_7 cell_4_8 cell_4_9 cell_5_7 cell_5_8 cell_5_9 cell_6_7 cell_6_8 cell_6_9) true))
(assert
 (and (distinct cell_7_1 cell_7_2 cell_7_3 cell_8_1 cell_8_2 cell_8_3 cell_9_1 cell_9_2 cell_9_3) true))
(assert
 (and (distinct cell_7_4 cell_7_5 cell_7_6 cell_8_4 cell_8_5 cell_8_6 cell_9_4 cell_9_5 cell_9_6) true))
(assert
 (and (distinct cell_7_7 cell_7_8 cell_7_9 cell_8_7 cell_8_8 cell_8_9 cell_9_7 cell_9_8 cell_9_9) true))
(assert
 (let (($x695 (and (distinct cell_5_9 cell_6_8 cell_7_7 cell_8_6) true)))
 (let (($x892 (and (distinct cell_2_9 cell_3_8 cell_4_7 cell_5_6 cell_6_5 cell_7_4 cell_8_3 cell_9_2) true)))
 (let (($x7217 (and (distinct cell_1_8 cell_2_7 cell_3_6 cell_4_5 cell_5_4 cell_6_3 cell_7_2 cell_8_1) true)))
 (let (($x7548 (and (distinct cell_1_5 cell_2_4 cell_3_3 cell_4_2) true)))
 (let (($x4663 (and (distinct cell_5_1 cell_6_2 cell_7_3 cell_8_4) true)))
 (let (($x585 (and (distinct cell_2_1 cell_3_2 cell_4_3 cell_5_4 cell_6_5 cell_7_6 cell_8_7 cell_9_8) true)))
 (let (($x919 (and (distinct cell_1_2 cell_2_3 cell_3_4 cell_4_5 cell_5_6 cell_6_7 cell_7_8 cell_8_9) true)))
 (let (($x1534 (and (distinct cell_1_5 cell_2_6 cell_3_7 cell_4_8) true)))
 (and $x1534 $x919 $x585 $x4663 $x7548 $x7217 $x892 $x695))))))))))
(assert
 (= cell_1_1 1))
(assert
 (= cell_2_4 1))
(assert
 (= cell_3_9 1))
(assert
 (= cell_4_8 1))
(assert
 (= cell_5_6 1))
(assert
 (= cell_6_3 1))
(assert
 (= cell_7_5 1))
(assert
 (= cell_8_2 1))
(assert
 (= cell_9_7 1))
(assert
 (= cell_1_4 2))
(assert
 (= cell_2_2 2))
(assert
 (= cell_3_8 2))
(assert
 (= cell_4_5 2))
(assert
 (= cell_5_9 2))
(assert
 (= cell_6_1 2))
(assert
 (= cell_7_3 2))
(assert
 (= cell_8_7 2))
(assert
 (= cell_9_6 2))
(assert
 (= cell_1_9 3))
(assert
 (= cell_2_3 3))
(assert
 (= cell_3_5 3))
(assert
 (= cell_4_7 3))
(check-sat)

